VALUE 1100370
1 117
2 34
1 3
4 117
4 6
8 111
12 113
16 82
17 76
20 64
21 64
24 59
29 45
33 41
34 128
41 42
42 43
29 43
45 46
46 49
49 53
53 57
53 54
54 55
21 57
55 59
64 69
17 69
16 76
82 83
83 86
86 88
88 90
90 97
97 98
98 99
99 101
101 107
107 112
111 114
112 116
101 113
114 115
115 116
1 116
2 117
2 118
3 119
6 120
8 121
12 122
16 123
20 124
24 125
29 126
33 127

